\ This file has been generated by DOcplex
\ ENCODING=ISO-8859-1
\Problem name: prisoners problem

Minimize
 obj: V
Subject To
 c1: V + 6 a1_u0_x0 + 15 a1_u1_x0 >= 0
 c2: V + 5 a1_u0_x0 + 10 a1_u1_x0 >= 0
 c3: a1_u0_x0 + a1_u1_x0 = 1

Bounds
       V Free
End
